KPOINTS FILE
100
Reciprocal 
   0.00000000 0.00000000 0.00000000  1.00 
   0.02631579 0.00000000 0.02631579  1.00 
   0.05263158 0.00000000 0.05263158  1.00 
   0.07894737 0.00000000 0.07894737  1.00 
   0.10526316 0.00000000 0.10526316  1.00 
   0.13157895 0.00000000 0.13157895  1.00 
   0.15789474 0.00000000 0.15789474  1.00 
   0.18421053 0.00000000 0.18421053  1.00 
   0.21052632 0.00000000 0.21052632  1.00 
   0.23684211 0.00000000 0.23684211  1.00 
   0.26315789 0.00000000 0.26315789  1.00 
   0.28947368 0.00000000 0.28947368  1.00 
   0.31578947 0.00000000 0.31578947  1.00 
   0.34210526 0.00000000 0.34210526  1.00 
   0.36842105 0.00000000 0.36842105  1.00 
   0.39473684 0.00000000 0.39473684  1.00 
   0.42105263 0.00000000 0.42105263  1.00 
   0.44736842 0.00000000 0.44736842  1.00 
   0.47368421 0.00000000 0.47368421  1.00 
   0.50000000 0.00000000 0.50000000  1.00 
   0.50000000 0.02500000 0.52500000  1.00 
   0.50000000 0.05000000 0.55000000  1.00 
   0.50000000 0.07500000 0.57500000  1.00 
   0.50000000 0.10000000 0.60000000  1.00 
   0.50000000 0.12500000 0.62500000  1.00 
   0.50000000 0.15000000 0.65000000  1.00 
   0.50000000 0.17500000 0.67500000  1.00 
   0.50000000 0.20000000 0.70000000  1.00 
   0.50000000 0.22500000 0.72500000  1.00 
   0.50000000 0.25000000 0.75000000  1.00 
   0.46875000 0.28125000 0.75000000  1.00 
   0.43750000 0.31250000 0.75000000  1.00 
   0.40625000 0.34375000 0.75000000  1.00 
   0.37500000 0.37500000 0.75000000  1.00 
   0.36057692 0.36057692 0.72115385  1.00 
   0.34615385 0.34615385 0.69230769  1.00 
   0.33173077 0.33173077 0.66346154  1.00 
   0.31730769 0.31730769 0.63461538  1.00 
   0.30288462 0.30288462 0.60576923  1.00 
   0.28846154 0.28846154 0.57692308  1.00 
   0.27403846 0.27403846 0.54807692  1.00 
   0.25961538 0.25961538 0.51923077  1.00 
   0.24519231 0.24519231 0.49038462  1.00 
   0.23076923 0.23076923 0.46153846  1.00 
   0.21634615 0.21634615 0.43269231  1.00 
   0.20192308 0.20192308 0.40384615  1.00 
   0.18750000 0.18750000 0.37500000  1.00 
   0.17307692 0.17307692 0.34615385  1.00 
   0.15865385 0.15865385 0.31730769  1.00 
   0.14423077 0.14423077 0.28846154  1.00 
   0.12980769 0.12980769 0.25961538  1.00 
   0.11538462 0.11538462 0.23076923  1.00 
   0.10096154 0.10096154 0.20192308  1.00 
   0.08653846 0.08653846 0.17307692  1.00 
   0.07211538 0.07211538 0.14423077  1.00 
   0.05769231 0.05769231 0.11538462  1.00 
   0.04326923 0.04326923 0.08653846  1.00 
   0.02884615 0.02884615 0.05769231  1.00 
   0.01442308 0.01442308 0.02884615  1.00 
   0.00000000 0.00000000 0.00000000  1.00 
   0.01666667 0.01666667 0.01666667  1.00 
   0.03333333 0.03333333 0.03333333  1.00 
   0.05000000 0.05000000 0.05000000  1.00 
   0.06666667 0.06666667 0.06666667  1.00 
   0.08333333 0.08333333 0.08333333  1.00 
   0.10000000 0.10000000 0.10000000  1.00 
   0.11666667 0.11666667 0.11666667  1.00 
   0.13333333 0.13333333 0.13333333  1.00 
   0.15000000 0.15000000 0.15000000  1.00 
   0.16666667 0.16666667 0.16666667  1.00 
   0.18333333 0.18333333 0.18333333  1.00 
   0.20000000 0.20000000 0.20000000  1.00 
   0.21666667 0.21666667 0.21666667  1.00 
   0.23333333 0.23333333 0.23333333  1.00 
   0.25000000 0.25000000 0.25000000  1.00 
   0.26666667 0.26666667 0.26666667  1.00 
   0.28333333 0.28333333 0.28333333  1.00 
   0.30000000 0.30000000 0.30000000  1.00 
   0.31666667 0.31666667 0.31666667  1.00 
   0.33333333 0.33333333 0.33333333  1.00 
   0.35000000 0.35000000 0.35000000  1.00 
   0.36666667 0.36666667 0.36666667  1.00 
   0.38333333 0.38333333 0.38333333  1.00 
   0.40000000 0.40000000 0.40000000  1.00 
   0.41666667 0.41666667 0.41666667  1.00 
   0.43333333 0.43333333 0.43333333  1.00 
   0.45000000 0.45000000 0.45000000  1.00 
   0.46666667 0.46666667 0.46666667  1.00 
   0.48333333 0.48333333 0.48333333  1.00 
   0.50000000 0.50000000 0.50000000  1.00 
   0.50000000 0.47500000 0.52500000  1.00 
   0.50000000 0.45000000 0.55000000  1.00 
   0.50000000 0.42500000 0.57500000  1.00 
   0.50000000 0.40000000 0.60000000  1.00 
   0.50000000 0.37500000 0.62500000  1.00 
   0.50000000 0.35000000 0.65000000  1.00 
   0.50000000 0.32500000 0.67500000  1.00 
   0.50000000 0.30000000 0.70000000  1.00 
   0.50000000 0.27500000 0.72500000  1.00 
   0.50000000 0.25000000 0.75000000  1.00 
KPOINTS FILE
100
Reciprocal 
   0.00000000 0.00000000 0.00000000  1.00 
   0.00559701 0.00559701 0.01119403  1.00 
   0.01119403 0.01119403 0.02238806  1.00 
   0.01679104 0.01679104 0.03358209  1.00 
   0.02238806 0.02238806 0.04477612  1.00 
   0.02798507 0.02798507 0.05597015  1.00 
   0.03358209 0.03358209 0.06716418  1.00 
   0.03917910 0.03917910 0.07835821  1.00 
   0.04477612 0.04477612 0.08955224  1.00 
   0.05037313 0.05037313 0.10074627  1.00 
   0.05597015 0.05597015 0.11194030  1.00 
   0.06156716 0.06156716 0.12313433  1.00 
   0.06716418 0.06716418 0.13432836  1.00 
   0.07276119 0.07276119 0.14552239  1.00 
   0.07835821 0.07835821 0.15671642  1.00 
   0.08395522 0.08395522 0.16791045  1.00 
   0.08955224 0.08955224 0.17910448  1.00 
   0.09514925 0.09514925 0.19029851  1.00 
   0.10074627 0.10074627 0.20149254  1.00 
   0.10634328 0.10634328 0.21268657  1.00 
   0.11194030 0.11194030 0.22388060  1.00 
   0.11753731 0.11753731 0.23507463  1.00 
   0.12313433 0.12313433 0.24626866  1.00 
   0.12873134 0.12873134 0.25746269  1.00 
   0.13432836 0.13432836 0.26865672  1.00 
   0.13992537 0.13992537 0.27985075  1.00 
   0.14552239 0.14552239 0.29104478  1.00 
   0.15111940 0.15111940 0.30223881  1.00 
   0.15671642 0.15671642 0.31343284  1.00 
   0.16231343 0.16231343 0.32462687  1.00 
   0.16791045 0.16791045 0.33582090  1.00 
   0.17350746 0.17350746 0.34701493  1.00 
   0.17910448 0.17910448 0.35820896  1.00 
   0.18470149 0.18470149 0.36940299  1.00 
   0.19029851 0.19029851 0.38059701  1.00 
   0.19589552 0.19589552 0.39179104  1.00 
   0.20149254 0.20149254 0.40298507  1.00 
   0.20708955 0.20708955 0.41417910  1.00 
   0.21268657 0.21268657 0.42537313  1.00 
   0.21828358 0.21828358 0.43656716  1.00 
   0.22388060 0.22388060 0.44776119  1.00 
   0.22947761 0.22947761 0.45895522  1.00 
   0.23507463 0.23507463 0.47014925  1.00 
   0.24067164 0.24067164 0.48134328  1.00 
   0.24626866 0.24626866 0.49253731  1.00 
   0.25186567 0.25186567 0.50373134  1.00 
   0.25746269 0.25746269 0.51492537  1.00 
   0.26305970 0.26305970 0.52611940  1.00 
   0.26865672 0.26865672 0.53731343  1.00 
   0.27425373 0.27425373 0.54850746  1.00 
   0.27985075 0.27985075 0.55970149  1.00 
   0.28544776 0.28544776 0.57089552  1.00 
   0.29104478 0.29104478 0.58208955  1.00 
   0.29664179 0.29664179 0.59328358  1.00 
   0.30223881 0.30223881 0.60447761  1.00 
   0.30783582 0.30783582 0.61567164  1.00 
   0.31343284 0.31343284 0.62686567  1.00 
   0.31902985 0.31902985 0.63805970  1.00 
   0.32462687 0.32462687 0.64925373  1.00 
   0.33022388 0.33022388 0.66044776  1.00 
   0.33582090 0.33582090 0.67164179  1.00 
   0.34141791 0.34141791 0.68283582  1.00 
   0.34701493 0.34701493 0.69402985  1.00 
   0.35261194 0.35261194 0.70522388  1.00 
   0.35820896 0.35820896 0.71641791  1.00 
   0.36380597 0.36380597 0.72761194  1.00 
   0.36940299 0.36940299 0.73880597  1.00 
   0.37500000 0.37500000 0.75000000  1.00 
   0.37890625 0.36328125 0.74218750  1.00 
   0.38281250 0.35156250 0.73437500  1.00 
   0.38671875 0.33984375 0.72656250  1.00 
   0.39062500 0.32812500 0.71875000  1.00 
   0.39453125 0.31640625 0.71093750  1.00 
   0.39843750 0.30468750 0.70312500  1.00 
   0.40234375 0.29296875 0.69531250  1.00 
   0.40625000 0.28125000 0.68750000  1.00 
   0.41015625 0.26953125 0.67968750  1.00 
   0.41406250 0.25781250 0.67187500  1.00 
   0.41796875 0.24609375 0.66406250  1.00 
   0.42187500 0.23437500 0.65625000  1.00 
   0.42578125 0.22265625 0.64843750  1.00 
   0.42968750 0.21093750 0.64062500  1.00 
   0.43359375 0.19921875 0.63281250  1.00 
   0.43750000 0.18750000 0.62500000  1.00 
   0.44140625 0.17578125 0.61718750  1.00 
   0.44531250 0.16406250 0.60937500  1.00 
   0.44921875 0.15234375 0.60156250  1.00 
   0.45312500 0.14062500 0.59375000  1.00 
   0.45703125 0.12890625 0.58593750  1.00 
   0.46093750 0.11718750 0.57812500  1.00 
   0.46484375 0.10546875 0.57031250  1.00 
   0.46875000 0.09375000 0.56250000  1.00 
   0.47265625 0.08203125 0.55468750  1.00 
   0.47656250 0.07031250 0.54687500  1.00 
   0.48046875 0.05859375 0.53906250  1.00 
   0.48437500 0.04687500 0.53125000  1.00 
   0.48828125 0.03515625 0.52343750  1.00 
   0.49218750 0.02343750 0.51562500  1.00 
   0.49609375 0.01171875 0.50781250  1.00 
   0.50000000 0.00000000 0.50000000  1.00 
