 Zn O                                   
   1.00000000000000     
     3.2361375643317567    0.0000000000000000    0.0000000000000000
    -1.6180687821658777    2.8025666364967914    0.0000000000000000
     0.0000000000000003    0.0000000000000006    5.2269363130444644
   Zn   O 
     2     2
Direct
  0.6666675868958737  0.3333351737917472  0.5018888553298250
  0.3333324131041263  0.6666648262082525  0.0018888553298248
  0.6666664436184840  0.3333328872369758  0.8806111446701753
  0.3333335563815158  0.6666671127630245  0.3806111446701754
 
  0.00000000E+00  0.00000000E+00  0.00000000E+00
  0.00000000E+00  0.00000000E+00  0.00000000E+00
  0.00000000E+00  0.00000000E+00  0.00000000E+00
  0.00000000E+00  0.00000000E+00  0.00000000E+00
